c File: flat50_3_0.col
c
c SOURCE: Joseph Culberson (joe@cs.ualberta.ca)
c DESCRIPTION: Quasi-random coloring problem
c              generated with flatness = 0
c                             probability = 0.139
c                             known coloring = 3
c                             random seed = 1765
c              Creation Date:  Tue Jun  9 12:17:20 1998
c Maximum degree = 8 Minimum degree = 1
c p edge 50 115
c cnf created by edge2cnf
p cnf 150 545
-1 -2 0
-1 -3 0
-2 -3 0
1 2 3 0
-4 -5 0
-4 -6 0
-5 -6 0
4 5 6 0
-7 -8 0
-7 -9 0
-8 -9 0
7 8 9 0
-10 -11 0
-10 -12 0
-11 -12 0
10 11 12 0
-13 -14 0
-13 -15 0
-14 -15 0
13 14 15 0
-16 -17 0
-16 -18 0
-17 -18 0
16 17 18 0
-19 -20 0
-19 -21 0
-20 -21 0
19 20 21 0
-22 -23 0
-22 -24 0
-23 -24 0
22 23 24 0
-25 -26 0
-25 -27 0
-26 -27 0
25 26 27 0
-28 -29 0
-28 -30 0
-29 -30 0
28 29 30 0
-31 -32 0
-31 -33 0
-32 -33 0
31 32 33 0
-34 -35 0
-34 -36 0
-35 -36 0
34 35 36 0
-37 -38 0
-37 -39 0
-38 -39 0
37 38 39 0
-40 -41 0
-40 -42 0
-41 -42 0
40 41 42 0
-43 -44 0
-43 -45 0
-44 -45 0
43 44 45 0
-46 -47 0
-46 -48 0
-47 -48 0
46 47 48 0
-49 -50 0
-49 -51 0
-50 -51 0
49 50 51 0
-52 -53 0
-52 -54 0
-53 -54 0
52 53 54 0
-55 -56 0
-55 -57 0
-56 -57 0
55 56 57 0
-58 -59 0
-58 -60 0
-59 -60 0
58 59 60 0
-61 -62 0
-61 -63 0
-62 -63 0
61 62 63 0
-64 -65 0
-64 -66 0
-65 -66 0
64 65 66 0
-67 -68 0
-67 -69 0
-68 -69 0
67 68 69 0
-70 -71 0
-70 -72 0
-71 -72 0
70 71 72 0
-73 -74 0
-73 -75 0
-74 -75 0
73 74 75 0
-76 -77 0
-76 -78 0
-77 -78 0
76 77 78 0
-79 -80 0
-79 -81 0
-80 -81 0
79 80 81 0
-82 -83 0
-82 -84 0
-83 -84 0
82 83 84 0
-85 -86 0
-85 -87 0
-86 -87 0
85 86 87 0
-88 -89 0
-88 -90 0
-89 -90 0
88 89 90 0
-91 -92 0
-91 -93 0
-92 -93 0
91 92 93 0
-94 -95 0
-94 -96 0
-95 -96 0
94 95 96 0
-97 -98 0
-97 -99 0
-98 -99 0
97 98 99 0
-100 -101 0
-100 -102 0
-101 -102 0
100 101 102 0
-103 -104 0
-103 -105 0
-104 -105 0
103 104 105 0
-106 -107 0
-106 -108 0
-107 -108 0
106 107 108 0
-109 -110 0
-109 -111 0
-110 -111 0
109 110 111 0
-112 -113 0
-112 -114 0
-113 -114 0
112 113 114 0
-115 -116 0
-115 -117 0
-116 -117 0
115 116 117 0
-118 -119 0
-118 -120 0
-119 -120 0
118 119 120 0
-121 -122 0
-121 -123 0
-122 -123 0
121 122 123 0
-124 -125 0
-124 -126 0
-125 -126 0
124 125 126 0
-127 -128 0
-127 -129 0
-128 -129 0
127 128 129 0
-130 -131 0
-130 -132 0
-131 -132 0
130 131 132 0
-133 -134 0
-133 -135 0
-134 -135 0
133 134 135 0
-136 -137 0
-136 -138 0
-137 -138 0
136 137 138 0
-139 -140 0
-139 -141 0
-140 -141 0
139 140 141 0
-142 -143 0
-142 -144 0
-143 -144 0
142 143 144 0
-145 -146 0
-145 -147 0
-146 -147 0
145 146 147 0
-148 -149 0
-148 -150 0
-149 -150 0
148 149 150 0
-52 -1 0
-53 -2 0
-54 -3 0
-61 -1 0
-62 -2 0
-63 -3 0
-85 -1 0
-86 -2 0
-87 -3 0
-88 -1 0
-89 -2 0
-90 -3 0
-103 -1 0
-104 -2 0
-105 -3 0
-127 -1 0
-128 -2 0
-129 -3 0
-139 -1 0
-140 -2 0
-141 -3 0
-61 -4 0
-62 -5 0
-63 -6 0
-73 -4 0
-74 -5 0
-75 -6 0
-91 -4 0
-92 -5 0
-93 -6 0
-106 -4 0
-107 -5 0
-108 -6 0
-136 -4 0
-137 -5 0
-138 -6 0
-139 -4 0
-140 -5 0
-141 -6 0
-52 -7 0
-53 -8 0
-54 -9 0
-55 -7 0
-56 -8 0
-57 -9 0
-79 -7 0
-80 -8 0
-81 -9 0
-82 -7 0
-83 -8 0
-84 -9 0
-118 -7 0
-119 -8 0
-120 -9 0
-130 -7 0
-131 -8 0
-132 -9 0
-64 -10 0
-65 -11 0
-66 -12 0
-76 -10 0
-77 -11 0
-78 -12 0
-85 -10 0
-86 -11 0
-87 -12 0
-145 -10 0
-146 -11 0
-147 -12 0
-76 -13 0
-77 -14 0
-78 -15 0
-118 -13 0
-119 -14 0
-120 -15 0
-130 -13 0
-131 -14 0
-132 -15 0
-136 -13 0
-137 -14 0
-138 -15 0
-142 -13 0
-143 -14 0
-144 -15 0
-115 -16 0
-116 -17 0
-117 -18 0
-133 -16 0
-134 -17 0
-135 -18 0
-61 -19 0
-62 -20 0
-63 -21 0
-82 -19 0
-83 -20 0
-84 -21 0
-55 -22 0
-56 -23 0
-57 -24 0
-88 -22 0
-89 -23 0
-90 -24 0
-94 -22 0
-95 -23 0
-96 -24 0
-121 -22 0
-122 -23 0
-123 -24 0
-124 -22 0
-125 -23 0
-126 -24 0
-133 -22 0
-134 -23 0
-135 -24 0
-55 -25 0
-56 -26 0
-57 -27 0
-76 -25 0
-77 -26 0
-78 -27 0
-139 -25 0
-140 -26 0
-141 -27 0
-73 -28 0
-74 -29 0
-75 -30 0
-100 -28 0
-101 -29 0
-102 -30 0
-112 -28 0
-113 -29 0
-114 -30 0
-130 -28 0
-131 -29 0
-132 -30 0
-142 -28 0
-143 -29 0
-144 -30 0
-70 -31 0
-71 -32 0
-72 -33 0
-85 -31 0
-86 -32 0
-87 -33 0
-91 -31 0
-92 -32 0
-93 -33 0
-97 -31 0
-98 -32 0
-99 -33 0
-115 -31 0
-116 -32 0
-117 -33 0
-55 -34 0
-56 -35 0
-57 -36 0
-61 -34 0
-62 -35 0
-63 -36 0
-85 -34 0
-86 -35 0
-87 -36 0
-82 -37 0
-83 -38 0
-84 -39 0
-130 -37 0
-131 -38 0
-132 -39 0
-91 -40 0
-92 -41 0
-93 -42 0
-109 -40 0
-110 -41 0
-111 -42 0
-136 -40 0
-137 -41 0
-138 -42 0
-142 -40 0
-143 -41 0
-144 -42 0
-88 -43 0
-89 -44 0
-90 -45 0
-94 -43 0
-95 -44 0
-96 -45 0
-106 -43 0
-107 -44 0
-108 -45 0
-109 -43 0
-110 -44 0
-111 -45 0
-139 -43 0
-140 -44 0
-141 -45 0
-142 -43 0
-143 -44 0
-144 -45 0
-52 -46 0
-53 -47 0
-54 -48 0
-58 -46 0
-59 -47 0
-60 -48 0
-109 -46 0
-110 -47 0
-111 -48 0
-115 -46 0
-116 -47 0
-117 -48 0
-121 -46 0
-122 -47 0
-123 -48 0
-127 -46 0
-128 -47 0
-129 -48 0
-73 -49 0
-74 -50 0
-75 -51 0
-88 -49 0
-89 -50 0
-90 -51 0
-97 -49 0
-98 -50 0
-99 -51 0
-106 -49 0
-107 -50 0
-108 -51 0
-112 -49 0
-113 -50 0
-114 -51 0
-136 -49 0
-137 -50 0
-138 -51 0
-106 -52 0
-107 -53 0
-108 -54 0
-130 -52 0
-131 -53 0
-132 -54 0
-112 -55 0
-113 -56 0
-114 -57 0
-139 -55 0
-140 -56 0
-141 -57 0
-142 -55 0
-143 -56 0
-144 -57 0
-145 -55 0
-146 -56 0
-147 -57 0
-103 -58 0
-104 -59 0
-105 -60 0
-127 -58 0
-128 -59 0
-129 -60 0
-139 -61 0
-140 -62 0
-141 -63 0
-145 -61 0
-146 -62 0
-147 -63 0
-109 -67 0
-110 -68 0
-111 -69 0
-139 -67 0
-140 -68 0
-141 -69 0
-145 -67 0
-146 -68 0
-147 -69 0
-103 -73 0
-104 -74 0
-105 -75 0
-106 -73 0
-107 -74 0
-108 -75 0
-115 -73 0
-116 -74 0
-117 -75 0
-142 -73 0
-143 -74 0
-144 -75 0
-103 -76 0
-104 -77 0
-105 -78 0
-109 -79 0
-110 -80 0
-111 -81 0
-121 -79 0
-122 -80 0
-123 -81 0
-133 -82 0
-134 -83 0
-135 -84 0
-109 -85 0
-110 -86 0
-111 -87 0
-115 -85 0
-116 -86 0
-117 -87 0
-112 -88 0
-113 -89 0
-114 -90 0
-124 -88 0
-125 -89 0
-126 -90 0
-145 -88 0
-146 -89 0
-147 -90 0
-103 -91 0
-104 -92 0
-105 -93 0
-112 -91 0
-113 -92 0
-114 -93 0
-127 -91 0
-128 -92 0
-129 -93 0
-148 -91 0
-149 -92 0
-150 -93 0
-130 -94 0
-131 -95 0
-132 -96 0
-139 -94 0
-140 -95 0
-141 -96 0
-112 -97 0
-113 -98 0
-114 -99 0
-106 -100 0
-107 -101 0
-108 -102 0
-124 -100 0
-125 -101 0
-126 -102 0
-136 -100 0
-137 -101 0
-138 -102 0
-148 -100 0
-149 -101 0
-150 -102 0
